10
Al   Ca  Da  Jo  Ka  Ki  Lu  Mo  Na  Ou
0   103 319 748 271 475 638 581 548 275
103   0 233 765 368 486 666 653 606 244
319 233   0 671 525 419 605 704 623 174
748 765 671   0 627 279 120 365 293 536
271 368 525 627   0 419 507 346 354 391
475 486 419 279 419   0 188 342 242 263
638 666 605 120 507 188   0 270 183 451
581 653 704 365 346 342 270   0 102 529
548 606 623 293 354 242 183 102   0 450
275 244 174 536 391 263 451 529 450   0
